p cnf    410         85
c 1 bit_0_hex_MMAP_BASE
c 2 bool_ENABLE_AC97
c 3 bool_INTERRUPTS_DEBUG
c 4 bool_KMALLOC_DEBUG
c 5 bool_ENABLE_PICOTCP
c 6 bool_SOCKET_DEBUG
c 7 bool_ENABLE_RTL8139
c 8 sign_int_PIT_RATE
c 9 bit_5_int_PIT_RATE
c 10 bit_16_int_PIT_RATE
c 11 bit_42_int_PIT_RATE
c 12 bit_49_int_PIT_RATE
c 13 bit_1_int_PIT_RATE
c 14 bit_22_int_PIT_RATE
c 15 bit_18_int_PIT_RATE
c 16 bit_58_int_PIT_RATE
c 17 bit_59_int_PIT_RATE
c 18 bit_54_int_PIT_RATE
c 19 bit_40_int_PIT_RATE
c 20 bit_2_int_PIT_RATE
c 21 bit_55_int_PIT_RATE
c 22 bit_41_int_PIT_RATE
c 23 bit_20_int_PIT_RATE
c 24 bit_35_int_PIT_RATE
c 25 bit_39_int_PIT_RATE
c 26 bit_0_int_PIT_RATE
c 27 bit_13_int_PIT_RATE
c 28 bit_34_int_PIT_RATE
c 29 bit_37_int_PIT_RATE
c 30 bit_61_int_PIT_RATE
c 31 bit_28_int_PIT_RATE
c 32 bit_15_int_PIT_RATE
c 33 bit_44_int_PIT_RATE
c 34 bit_62_int_PIT_RATE
c 35 bit_43_int_PIT_RATE
c 36 bit_6_int_PIT_RATE
c 37 bit_3_int_PIT_RATE
c 38 bit_56_int_PIT_RATE
c 39 bit_48_int_PIT_RATE
c 40 bit_50_int_PIT_RATE
c 41 bit_27_int_PIT_RATE
c 42 bit_47_int_PIT_RATE
c 43 bit_57_int_PIT_RATE
c 44 bit_14_int_PIT_RATE
c 45 bit_19_int_PIT_RATE
c 46 bit_25_int_PIT_RATE
c 47 bit_24_int_PIT_RATE
c 48 bit_4_int_PIT_RATE
c 49 bit_33_int_PIT_RATE
c 50 bit_53_int_PIT_RATE
c 51 bit_23_int_PIT_RATE
c 52 bit_52_int_PIT_RATE
c 53 bit_9_int_PIT_RATE
c 54 bit_38_int_PIT_RATE
c 55 bit_32_int_PIT_RATE
c 56 bit_60_int_PIT_RATE
c 57 bit_31_int_PIT_RATE
c 58 bit_30_int_PIT_RATE
c 59 bit_29_int_PIT_RATE
c 60 bit_26_int_PIT_RATE
c 61 bit_21_int_PIT_RATE
c 62 bit_7_int_PIT_RATE
c 63 bit_17_int_PIT_RATE
c 64 bit_12_int_PIT_RATE
c 65 bit_11_int_PIT_RATE
c 66 bit_45_int_PIT_RATE
c 67 bit_51_int_PIT_RATE
c 68 bit_36_int_PIT_RATE
c 69 bit_10_int_PIT_RATE
c 70 bit_8_int_PIT_RATE
c 71 bit_46_int_PIT_RATE
c 72 master_int_RTL8139_MAX_CARDS
c 73 sign_int_RTL8139_MAX_CARDS
c 74 bit_0_int_RTL8139_MAX_CARDS
c 75 bit_1_int_RTL8139_MAX_CARDS
c 76 bit_2_int_RTL8139_MAX_CARDS
c 77 bit_3_int_RTL8139_MAX_CARDS
c 78 bit_4_int_RTL8139_MAX_CARDS
c 79 bit_5_int_RTL8139_MAX_CARDS
c 80 bit_6_int_RTL8139_MAX_CARDS
c 81 bit_7_int_RTL8139_MAX_CARDS
c 82 bit_8_int_RTL8139_MAX_CARDS
c 83 bit_9_int_RTL8139_MAX_CARDS
c 84 bit_10_int_RTL8139_MAX_CARDS
c 85 bit_11_int_RTL8139_MAX_CARDS
c 86 bit_12_int_RTL8139_MAX_CARDS
c 87 bit_13_int_RTL8139_MAX_CARDS
c 88 bit_14_int_RTL8139_MAX_CARDS
c 89 bit_15_int_RTL8139_MAX_CARDS
c 90 bit_16_int_RTL8139_MAX_CARDS
c 91 bit_17_int_RTL8139_MAX_CARDS
c 92 bit_18_int_RTL8139_MAX_CARDS
c 93 bit_19_int_RTL8139_MAX_CARDS
c 94 bit_20_int_RTL8139_MAX_CARDS
c 95 bit_21_int_RTL8139_MAX_CARDS
c 96 bit_22_int_RTL8139_MAX_CARDS
c 97 bit_23_int_RTL8139_MAX_CARDS
c 98 bit_24_int_RTL8139_MAX_CARDS
c 99 bit_25_int_RTL8139_MAX_CARDS
c 100 bit_26_int_RTL8139_MAX_CARDS
c 101 bit_27_int_RTL8139_MAX_CARDS
c 102 bit_28_int_RTL8139_MAX_CARDS
c 103 bit_29_int_RTL8139_MAX_CARDS
c 104 bit_30_int_RTL8139_MAX_CARDS
c 105 bit_31_int_RTL8139_MAX_CARDS
c 106 bit_32_int_RTL8139_MAX_CARDS
c 107 bit_33_int_RTL8139_MAX_CARDS
c 108 bit_34_int_RTL8139_MAX_CARDS
c 109 bit_35_int_RTL8139_MAX_CARDS
c 110 bit_36_int_RTL8139_MAX_CARDS
c 111 bit_37_int_RTL8139_MAX_CARDS
c 112 bit_38_int_RTL8139_MAX_CARDS
c 113 bit_39_int_RTL8139_MAX_CARDS
c 114 bit_40_int_RTL8139_MAX_CARDS
c 115 bit_41_int_RTL8139_MAX_CARDS
c 116 bit_42_int_RTL8139_MAX_CARDS
c 117 bit_43_int_RTL8139_MAX_CARDS
c 118 bit_44_int_RTL8139_MAX_CARDS
c 119 bit_45_int_RTL8139_MAX_CARDS
c 120 bit_46_int_RTL8139_MAX_CARDS
c 121 bit_47_int_RTL8139_MAX_CARDS
c 122 bit_48_int_RTL8139_MAX_CARDS
c 123 bit_49_int_RTL8139_MAX_CARDS
c 124 bit_50_int_RTL8139_MAX_CARDS
c 125 bit_51_int_RTL8139_MAX_CARDS
c 126 bit_52_int_RTL8139_MAX_CARDS
c 127 bit_53_int_RTL8139_MAX_CARDS
c 128 bit_54_int_RTL8139_MAX_CARDS
c 129 bit_55_int_RTL8139_MAX_CARDS
c 130 bit_56_int_RTL8139_MAX_CARDS
c 131 bit_57_int_RTL8139_MAX_CARDS
c 132 bit_58_int_RTL8139_MAX_CARDS
c 133 bit_59_int_RTL8139_MAX_CARDS
c 134 bit_60_int_RTL8139_MAX_CARDS
c 135 bit_61_int_RTL8139_MAX_CARDS
c 136 bit_62_int_RTL8139_MAX_CARDS
c 137 sign_int_VFS_MAX_MOUNTPOINTS
c 138 bit_8_int_VFS_MAX_MOUNTPOINTS
c 139 bit_10_int_VFS_MAX_MOUNTPOINTS
c 140 bit_25_int_VFS_MAX_MOUNTPOINTS
c 141 bit_7_int_VFS_MAX_MOUNTPOINTS
c 142 bit_16_int_VFS_MAX_MOUNTPOINTS
c 143 bit_50_int_VFS_MAX_MOUNTPOINTS
c 144 bit_36_int_VFS_MAX_MOUNTPOINTS
c 145 bit_49_int_VFS_MAX_MOUNTPOINTS
c 146 bit_31_int_VFS_MAX_MOUNTPOINTS
c 147 bit_62_int_VFS_MAX_MOUNTPOINTS
c 148 bit_23_int_VFS_MAX_MOUNTPOINTS
c 149 bit_3_int_VFS_MAX_MOUNTPOINTS
c 150 bit_43_int_VFS_MAX_MOUNTPOINTS
c 151 bit_6_int_VFS_MAX_MOUNTPOINTS
c 152 bit_2_int_VFS_MAX_MOUNTPOINTS
c 153 bit_44_int_VFS_MAX_MOUNTPOINTS
c 154 bit_53_int_VFS_MAX_MOUNTPOINTS
c 155 bit_0_int_VFS_MAX_MOUNTPOINTS
c 156 bit_1_int_VFS_MAX_MOUNTPOINTS
c 157 bit_38_int_VFS_MAX_MOUNTPOINTS
c 158 bit_14_int_VFS_MAX_MOUNTPOINTS
c 159 bit_48_int_VFS_MAX_MOUNTPOINTS
c 160 bit_56_int_VFS_MAX_MOUNTPOINTS
c 161 bit_12_int_VFS_MAX_MOUNTPOINTS
c 162 bit_47_int_VFS_MAX_MOUNTPOINTS
c 163 bit_39_int_VFS_MAX_MOUNTPOINTS
c 164 bit_22_int_VFS_MAX_MOUNTPOINTS
c 165 bit_34_int_VFS_MAX_MOUNTPOINTS
c 166 bit_45_int_VFS_MAX_MOUNTPOINTS
c 167 bit_46_int_VFS_MAX_MOUNTPOINTS
c 168 bit_61_int_VFS_MAX_MOUNTPOINTS
c 169 bit_60_int_VFS_MAX_MOUNTPOINTS
c 170 bit_59_int_VFS_MAX_MOUNTPOINTS
c 171 bit_26_int_VFS_MAX_MOUNTPOINTS
c 172 bit_57_int_VFS_MAX_MOUNTPOINTS
c 173 bit_58_int_VFS_MAX_MOUNTPOINTS
c 174 bit_40_int_VFS_MAX_MOUNTPOINTS
c 175 bit_32_int_VFS_MAX_MOUNTPOINTS
c 176 bit_51_int_VFS_MAX_MOUNTPOINTS
c 177 bit_35_int_VFS_MAX_MOUNTPOINTS
c 178 bit_55_int_VFS_MAX_MOUNTPOINTS
c 179 bit_13_int_VFS_MAX_MOUNTPOINTS
c 180 bit_37_int_VFS_MAX_MOUNTPOINTS
c 181 bit_5_int_VFS_MAX_MOUNTPOINTS
c 182 bit_11_int_VFS_MAX_MOUNTPOINTS
c 183 bit_54_int_VFS_MAX_MOUNTPOINTS
c 184 bit_33_int_VFS_MAX_MOUNTPOINTS
c 185 bit_28_int_VFS_MAX_MOUNTPOINTS
c 186 bit_4_int_VFS_MAX_MOUNTPOINTS
c 187 bit_29_int_VFS_MAX_MOUNTPOINTS
c 188 bit_27_int_VFS_MAX_MOUNTPOINTS
c 189 bit_24_int_VFS_MAX_MOUNTPOINTS
c 190 bit_52_int_VFS_MAX_MOUNTPOINTS
c 191 bit_21_int_VFS_MAX_MOUNTPOINTS
c 192 bit_20_int_VFS_MAX_MOUNTPOINTS
c 193 bit_19_int_VFS_MAX_MOUNTPOINTS
c 194 bit_30_int_VFS_MAX_MOUNTPOINTS
c 195 bit_18_int_VFS_MAX_MOUNTPOINTS
c 196 bit_17_int_VFS_MAX_MOUNTPOINTS
c 197 bit_9_int_VFS_MAX_MOUNTPOINTS
c 198 bit_15_int_VFS_MAX_MOUNTPOINTS
c 199 bit_42_int_VFS_MAX_MOUNTPOINTS
c 200 bit_41_int_VFS_MAX_MOUNTPOINTS
c 201 bool_ENABLE_VIRTIO_NET
c 202 sign_int_VFS_MAX_OPENFILES
c 203 bit_4_int_VFS_MAX_OPENFILES
c 204 bit_7_int_VFS_MAX_OPENFILES
c 205 bit_9_int_VFS_MAX_OPENFILES
c 206 bit_30_int_VFS_MAX_OPENFILES
c 207 bit_60_int_VFS_MAX_OPENFILES
c 208 bit_61_int_VFS_MAX_OPENFILES
c 209 bit_33_int_VFS_MAX_OPENFILES
c 210 bit_5_int_VFS_MAX_OPENFILES
c 211 bit_3_int_VFS_MAX_OPENFILES
c 212 bit_13_int_VFS_MAX_OPENFILES
c 213 bit_23_int_VFS_MAX_OPENFILES
c 214 bit_50_int_VFS_MAX_OPENFILES
c 215 bit_47_int_VFS_MAX_OPENFILES
c 216 bit_57_int_VFS_MAX_OPENFILES
c 217 bit_58_int_VFS_MAX_OPENFILES
c 218 bit_49_int_VFS_MAX_OPENFILES
c 219 bit_56_int_VFS_MAX_OPENFILES
c 220 bit_48_int_VFS_MAX_OPENFILES
c 221 bit_26_int_VFS_MAX_OPENFILES
c 222 bit_46_int_VFS_MAX_OPENFILES
c 223 bit_43_int_VFS_MAX_OPENFILES
c 224 bit_39_int_VFS_MAX_OPENFILES
c 225 bit_35_int_VFS_MAX_OPENFILES
c 226 bit_16_int_VFS_MAX_OPENFILES
c 227 bit_21_int_VFS_MAX_OPENFILES
c 228 bit_44_int_VFS_MAX_OPENFILES
c 229 bit_1_int_VFS_MAX_OPENFILES
c 230 bit_0_int_VFS_MAX_OPENFILES
c 231 bit_2_int_VFS_MAX_OPENFILES
c 232 bit_41_int_VFS_MAX_OPENFILES
c 233 bit_18_int_VFS_MAX_OPENFILES
c 234 bit_38_int_VFS_MAX_OPENFILES
c 235 bit_51_int_VFS_MAX_OPENFILES
c 236 bit_40_int_VFS_MAX_OPENFILES
c 237 bit_8_int_VFS_MAX_OPENFILES
c 238 bit_45_int_VFS_MAX_OPENFILES
c 239 bit_17_int_VFS_MAX_OPENFILES
c 240 bit_59_int_VFS_MAX_OPENFILES
c 241 bit_55_int_VFS_MAX_OPENFILES
c 242 bit_62_int_VFS_MAX_OPENFILES
c 243 bit_6_int_VFS_MAX_OPENFILES
c 244 bit_11_int_VFS_MAX_OPENFILES
c 245 bit_54_int_VFS_MAX_OPENFILES
c 246 bit_53_int_VFS_MAX_OPENFILES
c 247 bit_37_int_VFS_MAX_OPENFILES
c 248 bit_52_int_VFS_MAX_OPENFILES
c 249 bit_42_int_VFS_MAX_OPENFILES
c 250 bit_32_int_VFS_MAX_OPENFILES
c 251 bit_31_int_VFS_MAX_OPENFILES
c 252 bit_29_int_VFS_MAX_OPENFILES
c 253 bit_36_int_VFS_MAX_OPENFILES
c 254 bit_28_int_VFS_MAX_OPENFILES
c 255 bit_10_int_VFS_MAX_OPENFILES
c 256 bit_34_int_VFS_MAX_OPENFILES
c 257 bit_27_int_VFS_MAX_OPENFILES
c 258 bit_25_int_VFS_MAX_OPENFILES
c 259 bit_15_int_VFS_MAX_OPENFILES
c 260 bit_14_int_VFS_MAX_OPENFILES
c 261 bit_24_int_VFS_MAX_OPENFILES
c 262 bit_22_int_VFS_MAX_OPENFILES
c 263 bit_20_int_VFS_MAX_OPENFILES
c 264 bit_19_int_VFS_MAX_OPENFILES
c 265 bit_12_int_VFS_MAX_OPENFILES
c 266 bool_ENABLE_VIRTIO_BLOCK
c 267 string_INIT_PATH_eq_empty
c 268 string_INIT_PATH_eq_/usr/bin/init
c 269 string_INIT_PATH_eq_INIT_PATH_otherval
c 270 bool_ELF_DEBUG
c 271 bool_VM_DEBUG
c 272 bool_KMALLOC_CHECK
c 273 sign_int_LOG_SERIAL_LEVEL
c 274 bit_5_int_LOG_SERIAL_LEVEL
c 275 bit_6_int_LOG_SERIAL_LEVEL
c 276 bit_7_int_LOG_SERIAL_LEVEL
c 277 bit_57_int_LOG_SERIAL_LEVEL
c 278 bit_59_int_LOG_SERIAL_LEVEL
c 279 bit_4_int_LOG_SERIAL_LEVEL
c 280 bit_52_int_LOG_SERIAL_LEVEL
c 281 bit_46_int_LOG_SERIAL_LEVEL
c 282 bit_11_int_LOG_SERIAL_LEVEL
c 283 bit_61_int_LOG_SERIAL_LEVEL
c 284 bit_15_int_LOG_SERIAL_LEVEL
c 285 bit_56_int_LOG_SERIAL_LEVEL
c 286 bit_18_int_LOG_SERIAL_LEVEL
c 287 bit_51_int_LOG_SERIAL_LEVEL
c 288 bit_22_int_LOG_SERIAL_LEVEL
c 289 bit_36_int_LOG_SERIAL_LEVEL
c 290 bit_24_int_LOG_SERIAL_LEVEL
c 291 bit_9_int_LOG_SERIAL_LEVEL
c 292 bit_34_int_LOG_SERIAL_LEVEL
c 293 bit_62_int_LOG_SERIAL_LEVEL
c 294 bit_10_int_LOG_SERIAL_LEVEL
c 295 bit_0_int_LOG_SERIAL_LEVEL
c 296 bit_39_int_LOG_SERIAL_LEVEL
c 297 bit_31_int_LOG_SERIAL_LEVEL
c 298 bit_8_int_LOG_SERIAL_LEVEL
c 299 bit_43_int_LOG_SERIAL_LEVEL
c 300 bit_37_int_LOG_SERIAL_LEVEL
c 301 bit_1_int_LOG_SERIAL_LEVEL
c 302 bit_45_int_LOG_SERIAL_LEVEL
c 303 bit_49_int_LOG_SERIAL_LEVEL
c 304 bit_2_int_LOG_SERIAL_LEVEL
c 305 bit_3_int_LOG_SERIAL_LEVEL
c 306 bit_42_int_LOG_SERIAL_LEVEL
c 307 bit_16_int_LOG_SERIAL_LEVEL
c 308 bit_53_int_LOG_SERIAL_LEVEL
c 309 bit_35_int_LOG_SERIAL_LEVEL
c 310 bit_38_int_LOG_SERIAL_LEVEL
c 311 bit_40_int_LOG_SERIAL_LEVEL
c 312 bit_47_int_LOG_SERIAL_LEVEL
c 313 bit_58_int_LOG_SERIAL_LEVEL
c 314 bit_17_int_LOG_SERIAL_LEVEL
c 315 bit_44_int_LOG_SERIAL_LEVEL
c 316 bit_12_int_LOG_SERIAL_LEVEL
c 317 bit_48_int_LOG_SERIAL_LEVEL
c 318 bit_33_int_LOG_SERIAL_LEVEL
c 319 bit_27_int_LOG_SERIAL_LEVEL
c 320 bit_20_int_LOG_SERIAL_LEVEL
c 321 bit_32_int_LOG_SERIAL_LEVEL
c 322 bit_29_int_LOG_SERIAL_LEVEL
c 323 bit_26_int_LOG_SERIAL_LEVEL
c 324 bit_30_int_LOG_SERIAL_LEVEL
c 325 bit_41_int_LOG_SERIAL_LEVEL
c 326 bit_28_int_LOG_SERIAL_LEVEL
c 327 bit_25_int_LOG_SERIAL_LEVEL
c 328 bit_23_int_LOG_SERIAL_LEVEL
c 329 bit_13_int_LOG_SERIAL_LEVEL
c 330 bit_50_int_LOG_SERIAL_LEVEL
c 331 bit_60_int_LOG_SERIAL_LEVEL
c 332 bit_21_int_LOG_SERIAL_LEVEL
c 333 bit_19_int_LOG_SERIAL_LEVEL
c 334 bit_14_int_LOG_SERIAL_LEVEL
c 335 bit_54_int_LOG_SERIAL_LEVEL
c 336 bit_55_int_LOG_SERIAL_LEVEL
c 337 bool_SYSCALL_DEBUG
c 338 string_ARCH_eq_empty
c 339 string_ARCH_eq_ARCH_otherval
c 340 string_ARCH_eq_i386
c 341 bit_0_hex_EXECDATA_LOCATION
c 342 bool_LOG_STORE
c 343 sign_int_LOG_PRINT_LEVEL
c 344 bit_9_int_LOG_PRINT_LEVEL
c 345 bit_11_int_LOG_PRINT_LEVEL
c 346 bit_10_int_LOG_PRINT_LEVEL
c 347 bit_13_int_LOG_PRINT_LEVEL
c 348 bit_36_int_LOG_PRINT_LEVEL
c 349 bit_58_int_LOG_PRINT_LEVEL
c 350 bit_59_int_LOG_PRINT_LEVEL
c 351 bit_56_int_LOG_PRINT_LEVEL
c 352 bit_6_int_LOG_PRINT_LEVEL
c 353 bit_49_int_LOG_PRINT_LEVEL
c 354 bit_42_int_LOG_PRINT_LEVEL
c 355 bit_60_int_LOG_PRINT_LEVEL
c 356 bit_35_int_LOG_PRINT_LEVEL
c 357 bit_7_int_LOG_PRINT_LEVEL
c 358 bit_61_int_LOG_PRINT_LEVEL
c 359 bit_5_int_LOG_PRINT_LEVEL
c 360 bit_62_int_LOG_PRINT_LEVEL
c 361 bit_1_int_LOG_PRINT_LEVEL
c 362 bit_25_int_LOG_PRINT_LEVEL
c 363 bit_37_int_LOG_PRINT_LEVEL
c 364 bit_40_int_LOG_PRINT_LEVEL
c 365 bit_33_int_LOG_PRINT_LEVEL
c 366 bit_46_int_LOG_PRINT_LEVEL
c 367 bit_4_int_LOG_PRINT_LEVEL
c 368 bit_3_int_LOG_PRINT_LEVEL
c 369 bit_43_int_LOG_PRINT_LEVEL
c 370 bit_39_int_LOG_PRINT_LEVEL
c 371 bit_50_int_LOG_PRINT_LEVEL
c 372 bit_2_int_LOG_PRINT_LEVEL
c 373 bit_0_int_LOG_PRINT_LEVEL
c 374 bit_19_int_LOG_PRINT_LEVEL
c 375 bit_32_int_LOG_PRINT_LEVEL
c 376 bit_41_int_LOG_PRINT_LEVEL
c 377 bit_12_int_LOG_PRINT_LEVEL
c 378 bit_45_int_LOG_PRINT_LEVEL
c 379 bit_44_int_LOG_PRINT_LEVEL
c 380 bit_8_int_LOG_PRINT_LEVEL
c 381 bit_57_int_LOG_PRINT_LEVEL
c 382 bit_22_int_LOG_PRINT_LEVEL
c 383 bit_47_int_LOG_PRINT_LEVEL
c 384 bit_53_int_LOG_PRINT_LEVEL
c 385 bit_55_int_LOG_PRINT_LEVEL
c 386 bit_20_int_LOG_PRINT_LEVEL
c 387 bit_15_int_LOG_PRINT_LEVEL
c 388 bit_14_int_LOG_PRINT_LEVEL
c 389 bit_30_int_LOG_PRINT_LEVEL
c 390 bit_34_int_LOG_PRINT_LEVEL
c 391 bit_52_int_LOG_PRINT_LEVEL
c 392 bit_31_int_LOG_PRINT_LEVEL
c 393 bit_51_int_LOG_PRINT_LEVEL
c 394 bit_54_int_LOG_PRINT_LEVEL
c 395 bit_29_int_LOG_PRINT_LEVEL
c 396 bit_28_int_LOG_PRINT_LEVEL
c 397 bit_38_int_LOG_PRINT_LEVEL
c 398 bit_27_int_LOG_PRINT_LEVEL
c 399 bit_26_int_LOG_PRINT_LEVEL
c 400 bit_24_int_LOG_PRINT_LEVEL
c 401 bit_23_int_LOG_PRINT_LEVEL
c 402 bit_21_int_LOG_PRINT_LEVEL
c 403 bit_18_int_LOG_PRINT_LEVEL
c 404 bit_17_int_LOG_PRINT_LEVEL
c 405 bit_48_int_LOG_PRINT_LEVEL
c 406 bit_16_int_LOG_PRINT_LEVEL
c 407 bool_ENABLE_NE2K
c 408 bool_ENABLE_EXT2
c 409 bool_EXT2_DEBUG
c 410 bool_VM_DEBUG_ALL
5 -7 0
26 13 37 28 29 31 32 35 36 33 34 42 39 25 24 23 30 22 21 20 19 16 41 40 15 17 18 12 14 38 43 46 45 44 47 48 49 50 51 52 53 54 55 56 57 58 59 60 61 62 63 27 64 65 66 68 67 69 71 70 11 10 9 -8 0
72 -7 0
7 -72 0
7 -73 0
7 -74 0
7 -75 0
7 -76 0
7 -77 0
7 -78 0
7 -79 0
7 -80 0
7 -81 0
7 -82 0
7 -83 0
7 -84 0
7 -85 0
7 -86 0
7 -87 0
7 -88 0
7 -89 0
7 -90 0
7 -91 0
7 -92 0
7 -93 0
7 -94 0
7 -95 0
7 -96 0
7 -97 0
7 -98 0
7 -99 0
7 -100 0
7 -101 0
7 -102 0
7 -103 0
7 -104 0
7 -105 0
7 -106 0
7 -107 0
7 -108 0
7 -109 0
7 -110 0
7 -111 0
7 -112 0
7 -113 0
7 -114 0
7 -115 0
7 -116 0
7 -117 0
7 -118 0
7 -119 0
7 -120 0
7 -121 0
7 -122 0
7 -123 0
7 -124 0
7 -125 0
7 -126 0
7 -127 0
7 -128 0
7 -129 0
7 -130 0
7 -131 0
7 -132 0
7 -133 0
7 -134 0
7 -135 0
7 -136 0
74 76 108 86 114 121 116 104 110 118 123 96 109 122 98 119 133 95 136 132 115 112 101 117 85 131 75 77 113 106 130 135 129 128 127 111 120 124 125 107 89 103 105 84 126 92 100 93 99 97 80 91 134 102 90 88 87 78 83 94 82 81 79 -73 0
155 156 152 149 157 158 165 164 166 159 160 161 167 150 148 151 147 146 145 144 143 154 153 142 141 140 163 162 168 169 170 171 172 173 174 175 176 177 178 179 181 180 182 183 184 185 186 187 188 189 190 191 192 193 194 195 196 197 200 199 198 139 138 -137 0
5 -201 0
229 230 231 211 225 224 223 233 232 226 228 227 234 222 221 220 218 217 219 216 213 215 214 212 208 209 210 207 206 235 236 237 238 239 240 241 242 243 246 247 248 249 250 251 252 253 254 255 256 257 258 259 262 263 264 261 260 265 245 244 205 204 203 -202 0
-269 -268 0
-267 -269 0
-267 -268 0
267 268 269 0
295 301 304 305 292 307 310 303 306 296 297 311 282 293 294 287 286 285 291 290 283 284 281 280 289 288 277 278 279 302 312 313 315 314 316 309 308 317 318 319 320 321 322 323 324 325 326 327 328 330 329 331 332 333 335 336 334 299 300 298 276 275 274 -273 0
-340 -339 0
-340 -338 0
-338 -339 0
338 340 339 0
361 368 348 370 369 377 378 376 372 371 366 365 367 364 363 362 360 359 358 357 353 352 354 355 356 351 350 349 373 375 374 379 380 381 382 383 384 385 390 389 386 387 388 391 392 394 393 395 396 397 398 399 400 401 402 403 404 405 406 347 346 345 344 -343 0
5 -407 0
408 -409 0
271 -410 0
